db/data/25542274332610468912132011512342210436.z3.out
-------------------
2500.138350249
